NAME : rat783.3262.tour
COMMENT : Length = 3262
COMMENT : Found by LKH [Keld Helsgaun] Sat May 25 06:48:35 2013
TYPE : TOUR
DIMENSION : 157
TOUR_SECTION
17
18
12
58
76
74
77
36
31
50
62
54
69
44
28
13
6
40
84
87
109
149
170
181
194
238
247
264
297
314
329
367
394
442
461
471
481
510
532
545
550
595
637
647
663
687
717
744
753
751
716
741
780
770
748
755
737
757
758
761
769
747
718
706
690
685
652
611
586
579
590
613
628
666
686
653
633
605
575
543
558
556
535
529
515
495
460
430
426
433
485
506
511
482
445
423
401
390
356
344
328
302
277
242
236
239
205
195
222
243
258
259
281
290
325
346
347
333
345
360
375
391
419
441
464
476
474
450
440
412
378
362
349
337
320
308
288
287
257
226
213
197
167
141
150
157
169
163
152
151
153
123
115
100
97
52
37
-1
EOF
